32      4       
13      17      18      14      
0       0       0       0       0       2       2       3       
8       0       17      0       7       3       4       5       6       
3       0       11      18      0       3       5       6       7       
9       0       0       7       13      3       7       9       13      
6       0       0       15      7       7       9       11      12      13      15      19      23      
3       6       16      0       0       5       8       14      19      20      24      
1       0       2       18      0       11      10      11      12      14      15      18      19      21      22      23      24      
4       13      0       14      0       10      10      11      12      13      15      16      17      21      22      23      
7       0       0       16      14      8       10      14      16      17      18      20      21      24      
6       11      0       18      0       5       25      26      27      28      31      
5       12      0       0       14      5       25      26      27      28      31      
10      13      0       0       14      5       25      26      27      28      31      
9       0       0       13      14      5       25      26      27      28      31      
1       0       17      0       14      4       26      27      28      31      
10      10      0       0       2       4       25      26      27      28      
3       0       17      0       10      4       25      26      28      31      
4       11      0       14      0       4       25      26      27      28      
3       0       14      12      0       4       25      26      28      31      
6       9       14      0       0       4       26      27      30      31      
8       0       10      8       0       4       26      27      30      31      
8       0       0       10      8       3       25      26      27      
6       0       13      0       14      3       25      26      27      
2       0       14      11      0       2       26      28      
9       7       4       0       0       2       25      27      
4       4       0       11      0       2       29      30      
5       12      17      0       0       1       29      
4       13      0       0       12      1       29      
1       11      0       0       14      1       30      
10      5       14      0       0       1       32      
1       0       11      0       1       1       32      
10      9       0       18      0       1       32      
0       0       0       0       0       0       
